Route #1: 15 8 17 42 21
Route #2: 1 28 29 19 32
Route #3: 5 39
Route #4: 45 41 35 10 23 46
Route #5: 38 22 13 3 14 30 36 20
Route #6: 43 11 16 24 47 26 18 4
Route #7: 25 49 33 9 12 27 37 44
Route #8: 34 48 40 7 31 6 2
Cost 1354